50
93.0
0 49 5.34 1.73
1 48 4.77 1.77
2 47 4.81 1.76
3 46 3.75 1.75
4 45 5.11 1.71
5 44 4.86 1.76
6 43 5.34 1.74
7 42 5.77 1.75
8 41 4.78 1.75
9 40 4.66 1.75
10 39 5.95 1.75
11 38 5.08 1.75
12 37 5.41 1.73
13 36 4.99 1.73
14 35 4.85 1.77
15 34 5.61 1.71
16 33 4.97 1.74
17 32 5.85 1.74
18 31 4.57 1.72
19 30 5.55 1.79
20 29 4.64 1.8
21 28 4.66 1.78
22 27 5.15 1.75
23 26 5.71 1.77
24 25 5.23 1.81
25 24 4.83 1.82
26 23 5.35 1.69
27 22 4.81 1.81
28 21 4.87 1.78
29 20 4.62 1.79
30 19 4.98 1.72
31 18 4.61 1.79
32 17 5.07 1.83
33 16 6.76 1.76
34 15 4.95 1.71
35 14 4.51 1.75
36 13 4.13 1.81
37 12 4.81 1.66
38 11 4.07 1.79
39 10 3.87 1.78
40 9 6.72 1.71
41 8 4.19 1.79
42 7 2.99 1.73
43 6 4.97 1.81
44 5 6.79 1.66
45 4 5.21 1.89
46 3 2.46 1.66
47 2 3.33 1.87
48 1 0.81 1.62
